25 500
  0     35.0     35.0       0.0     1000.0      0.0       0.0       0.0  
  1     41.0     49.0       0.0      974.0     10.0       3.0      10.0  
  2     35.0     17.0       0.0      972.0     10.0      12.0       7.0  
  3     55.0     45.0       0.0      967.0     10.0      14.0      13.0  
  4     55.0     20.0      678.0     801.0     10.0      37.0      19.0  
  5     15.0     30.0       0.0      969.0     10.0       7.0      26.0  
  6     25.0     30.0       0.0      978.0     10.0       5.0       3.0  
  7     20.0     50.0       0.0      968.0     10.0       8.0       5.0  
  8     10.0     43.0      404.0     481.0     10.0      12.0       9.0  
  9     55.0     60.0      400.0     497.0     10.0       8.0      16.0  
 10     30.0     60.0       0.0      964.0     10.0      12.0      16.0  
 11     20.0     65.0      206.0     325.0     10.0       3.0      12.0  
 12     50.0     35.0       0.0      975.0     10.0      32.0      19.0  
 13     30.0     25.0      690.0     827.0     10.0      26.0      23.0  
 14     15.0     10.0       0.0      957.0     10.0      13.0      20.0  
 15     30.0      5.0      175.0     300.0     10.0       2.0       8.0  
 16     10.0     20.0       0.0      960.0     10.0      29.0      19.0  
 17      5.0     30.0       0.0      959.0     10.0       1.0       2.0  
 18     20.0     40.0       0.0      974.0     10.0       5.0      12.0  
 19     15.0     60.0       0.0      957.0     10.0      20.0      17.0  
 20     45.0     65.0       0.0      958.0     10.0      10.0       9.0  
 21     45.0     20.0       0.0      971.0     10.0      12.0      11.0  
 22     45.0     10.0       0.0      963.0     10.0      15.0      18.0  
 23     55.0      5.0      206.0     325.0     10.0      55.0      29.0  
 24     65.0     35.0       0.0      960.0     10.0       6.0       3.0  
 25     65.0     20.0      817.0     956.0     10.0       3.0       6.0  
 26     45.0     30.0       0.0      978.0     10.0      20.0      17.0  
 27     35.0     40.0       0.0      985.0     10.0       8.0      16.0  
 28     41.0     37.0       0.0      983.0     10.0      11.0      16.0  
 29     64.0     42.0       0.0      960.0     10.0      13.0       9.0  
 30     40.0     60.0       0.0      964.0     10.0      27.0      21.0  
 31     31.0     52.0       0.0      972.0     10.0      50.0      27.0  
 32     35.0     69.0       0.0      956.0     10.0      38.0      23.0  
 33     53.0     52.0       0.0      965.0     10.0      21.0      11.0  
 34     65.0     55.0       0.0      953.0     10.0       5.0      14.0  
 35     63.0     65.0       0.0      948.0     10.0       5.0       8.0  
 36      2.0     60.0       0.0      948.0     10.0       5.0       5.0  
 37     20.0     20.0       0.0      968.0     10.0       3.0       8.0  
 38      5.0      5.0      302.0     405.0     10.0       4.0      16.0  
 39     60.0     12.0       0.0      956.0     10.0      49.0      31.0  
 40     40.0     25.0       0.0      978.0     10.0      10.0       9.0  
 41     42.0      7.0       0.0      961.0     10.0       6.0       5.0  
 42     24.0     12.0       0.0      964.0     10.0       6.0       5.0  
 43     23.0      3.0       0.0      955.0     10.0      13.0       7.0  
 44     11.0     14.0      233.0     340.0     10.0       8.0      18.0  
 45      6.0     38.0       0.0      960.0     10.0       4.0      16.0  
 46      2.0     48.0       0.0      954.0     10.0       2.0       1.0  
 47      8.0     56.0       0.0      955.0     10.0      31.0      27.0  
 48     13.0     52.0       0.0      962.0     10.0      30.0      36.0  
 49      6.0     68.0       0.0      946.0     10.0      13.0      30.0  
 50     47.0     47.0       0.0      973.0     10.0      19.0      13.0  
